50, 14006
959, 934
141, 158
24, 37
999, 1018
185, 194
121, 108
652, 687
346, 352
890, 807
232, 332
960, 931
320, 306
602, 582
933, 1019
686, 777
924, 926
709, 689
49, 15
882, 961
590, 524
311, 320
191, 161
850, 815
583, 554
938, 876
774, 681
962, 969
567, 626
699, 729
613, 553
259, 298
957, 867
313, 295
782, 848
955, 1040
651, 643
143, 213
826, 826
668, 673
186, 203
50, 149
532, 581
33, 63
926, 972
507, 536
518, 489
410, 467
661, 725
917, 939
308, 397
